row=6;
column=6;
Board=[|5,6,1,3,4,2|2,4,3,6,5,1|3,1,5,2,6,4|4,3,6,1,2,5|1,2,4,5,3,6|6,5,2,4,1,3|];
horizontal=[|0,1,0,0,1|0,1,0,1,1|1,0,1,0,1|1,0,1,0,0|0,0,0,1,0|1,1,0,1,0|];
vertical=[|1,1,0,0,0,1|0,1,0,1,0,0|0,0,0,1,1,0|1,1,1,0,0,0|0,0,1,1,1,1|];
